
Gurobi 9.5.1 (linux64) logging started Sat 11 Jun 2022 08:42:58 PM MST

Set parameter LogFile to value "/home/local/ASUAD/kmajd1/NNRepLayer_v2/demos/walking_example/flow_constraint/repair_net/logs/opt_log_6_11_2022_20_40_39.log"
Gurobi Optimizer version 9.5.1 build v9.5.1rc2 (linux64)
Thread count: 48 physical cores, 96 logical processors, using up to 32 threads
Optimize a model with 79512 rows, 49357 columns and 222776 nonzeros
Model fingerprint: 0x9ddc169b
Model has 301 quadratic objective terms
Variable types: 20557 continuous, 28800 integer (28800 binary)
Coefficient statistics:
  Matrix range     [2e-04, 5e+01]
  Objective range  [2e-03, 3e-01]
  QObjective range [7e-02, 2e+00]
  Bounds range     [2e-01, 5e+01]
  RHS range        [2e-04, 5e+01]
Presolve removed 62758 rows and 33409 columns
Presolve time: 0.50s
Presolved: 16754 rows, 15948 columns, 80000 nonzeros
Presolved model has 301 quadratic objective terms
Variable types: 11006 continuous, 4942 integer (4942 binary)
Found heuristic solution: objective 6.0634576
Root relaxation presolve removed 4933 rows and 4933 columns
Root relaxation presolved: 11821 rows, 11015 columns, 70134 nonzeros
Root relaxation presolved model has 301 quadratic objective terms


Root simplex log...

Iteration    Objective       Primal Inf.    Dual Inf.      Time
   31431    1.5698789e+00   1.690665e+02   0.000000e+00      5s
   46297    1.5633813e+00   0.000000e+00   0.000000e+00      7s
   46312    1.5633813e+00   0.000000e+00   0.000000e+00      7s
Extra simplex iterations after uncrush: 15

Root relaxation: objective 1.563381e+00, 46312 iterations, 5.33 seconds (13.89 work units)

    Nodes    |    Current Node    |     Objective Bounds      |     Work
 Expl Unexpl |  Obj  Depth IntInf | Incumbent    BestBd   Gap | It/Node Time

     0     0    1.56338    0 1856    6.06346    1.56338  74.2%     -    7s
     0     0    1.57366    0 2009    6.06346    1.57366  74.0%     -   18s
     0     0    1.57386    0 2098    6.06346    1.57386  74.0%     -   21s
H    0     0                       5.9120674    1.57386  73.4%     -   22s
     0     0    1.57971    0 2028    5.91207    1.57971  73.3%     -   37s
     0     0    1.58202    0 1927    5.91207    1.58202  73.2%     -   53s
     0     0    1.58287    0 1933    5.91207    1.58287  73.2%     -   61s
     0     0    1.58464    0 1934    5.91207    1.58464  73.2%     -   67s
     0     0    1.58642    0 1912    5.91207    1.58642  73.2%     -   73s
     0     0    1.59129    0 1896    5.91207    1.59129  73.1%     -   80s
     0     0    1.60007    0 1882    5.91207    1.60007  72.9%     -  100s
     0     0    1.60608    0 1971    5.91207    1.60608  72.8%     -  122s
     0     0    1.60639    0 2100    5.91207    1.60639  72.8%     -  129s
     0     0    1.60764    0 2104    5.91207    1.60764  72.8%     -  135s
     0     0    1.60817    0 2057    5.91207    1.60817  72.8%     -  141s
     0     0    1.60999    0 2149    5.91207    1.60999  72.8%     -  147s
     0     0    1.61035    0 2128    5.91207    1.61035  72.8%     -  153s
     0     0    1.61127    0 2130    5.91207    1.61127  72.7%     -  159s
     0     0    1.61151    0 2036    5.91207    1.61151  72.7%     -  165s
     0     0    1.61159    0 2037    5.91207    1.61159  72.7%     -  169s
     0     0    1.61195    0 2050    5.91207    1.61195  72.7%     -  175s
     0     0    1.61232    0 2059    5.91207    1.61232  72.7%     -  180s
     0     0    1.61236    0 2062    5.91207    1.61236  72.7%     -  187s
     0     0    1.61306    0 2108    5.91207    1.61306  72.7%     -  196s
     0     0    1.61310    0 2097    5.91207    1.61310  72.7%     -  203s
     0     0    1.61330    0 2081    5.91207    1.61330  72.7%     -  208s
     0     0    1.61348    0 2037    5.91207    1.61348  72.7%     -  221s
     0     0    1.61357    0 2086    5.91207    1.61357  72.7%     -  227s
     0     0    1.61374    0 2089    5.91207    1.61374  72.7%     -  233s
     0     0    1.61376    0 2062    5.91207    1.61376  72.7%     -  236s
     0     0    1.61398    0 2085    5.91207    1.61398  72.7%     -  242s
     0     0    1.61409    0 2084    5.91207    1.61409  72.7%     -  246s
     0     0    1.61426    0 2049    5.91207    1.61426  72.7%     -  252s
     0     0    1.61430    0 2128    5.91207    1.61430  72.7%     -  284s

Cutting planes:
  Cover: 209
  Implied bound: 644
  Projected implied bound: 1
  Clique: 48
  MIR: 2039
  StrongCG: 34
  Flow cover: 1844
  Zero half: 22
  RLT: 3
  Relax-and-lift: 80

Explored 1 nodes (661964 simplex iterations) in 285.80 seconds (650.43 work units)
Thread count was 32 (of 96 available processors)

Solution count 2: 5.91207 6.06346 

Solve interrupted
Best objective 5.912067359608e+00, best bound 1.614297622043e+00, gap 72.6949%
